
Gurobi 11.0.2 (win64) logging started Mon Nov 25 01:45:48 2024

Set parameter LogFile to value ".\Experiments\Verification_16_eps0.0001_focus\Logs\vit_12_2_6_12_i4_r1_c1.log"
Set parameter TimeLimit to value 43200
Gurobi Optimizer version 11.0.2 build v11.0.2rc0 (win64 - Windows 10.0 (19045.2))

CPU model: Intel(R) Core(TM) i7-10750H CPU @ 2.60GHz, instruction set [SSE2|AVX|AVX2]
Thread count: 6 physical cores, 12 logical processors, using up to 12 threads

Optimize a model with 4023 rows, 7591 columns and 19626 nonzeros
Model fingerprint: 0x5b5697bc
Model has 2150 quadratic constraints
Model has 420 general constraints
Variable types: 7291 continuous, 300 integer (300 binary)
Coefficient statistics:
  Matrix range     [1e-05, 2e+02]
  QMatrix range    [1e+00, 1e+00]
  QLMatrix range   [1e+00, 1e+00]
  Objective range  [1e+00, 1e+00]
  Bounds range     [1e-310, 1e+03]
  RHS range        [4e-05, 2e+02]
  QRHS range       [1e-06, 1e-06]
Presolve removed 2448 rows and 3920 columns
Presolve time: 0.11s
Presolved: 10183 rows, 3672 columns, 35016 nonzeros
Presolved model has 1883 bilinear constraint(s)
Presolved model has 268 nonlinear constraint(s)

Solving non-convex MINLP

Variable types: 3444 continuous, 228 integer (226 binary)

Root relaxation: objective 7.456083e+01, 5550 iterations, 0.48 seconds (0.72 work units)

    Nodes    |    Current Node    |     Objective Bounds      |     Work
 Expl Unexpl |  Obj  Depth IntInf | Incumbent    BestBd   Gap | It/Node Time

     0     0   74.56083    0 1447          -   74.56083      -     -    1s
     0     0   74.56083    0 1461          -   74.56083      -     -    2s
     0     0   74.56083    0 1423          -   74.56083      -     -    2s
     0     0   74.56083    0 1404          -   74.56083      -     -    3s
     0     0   74.56083    0 1383          -   74.56083      -     -    4s
     0     0   74.56083    0 1397          -   74.56083      -     -    6s
     0     0   74.56083    0 1391          -   74.56083      -     -    7s
     0     0   74.56083    0 1383          -   74.56083      -     -    9s
     0     0   74.56083    0 1398          -   74.56083      -     -   10s
     0     0   74.56083    0 1364          -   74.56083      -     -   18s
     0     2   74.56083    0 1364          -   74.56083      -     -   50s
    13    18   74.56083    4 1346          -   74.56083      -  4632   56s
    41    47   74.56083    8 1388          -   74.56083      -  2630   61s
    48    91   74.56083    9 1389          -   74.56083      -  2876   65s
    92   137   74.56083   19 1372          -   74.56083      -  1962   71s
   148   276   74.56083   28 1371          -   74.56083      -  1971   81s
   311   382   74.56083   37 1369          -   74.56083      -  1553  113s
   423   552   74.56083   51 1330          -   74.56083      -  2006  139s
   601   733   74.56083   69 1364          -   74.56083      -  2367  187s
   786  1198   74.56083   77 1369          -   74.56083      -  2643  232s
  1273  1577   74.56083  123 1422          -   74.56083      -  2206  272s
  1726  1921 infeasible  177               -   74.56083      -  2088  311s
  2208  2188   74.56083  226 1407          -   74.56083      -  1943  350s
  2598  2190   74.56082  215   55          -   74.56082      -  1856  368s
  2599  2191   74.56082  157   56          -   74.56082      -  1855  370s
  2602  2193   74.56064  150    0          -   74.56081      -  1853  375s
  2607  2196   74.56081   38    6          -   74.56081      -  1849  380s
  2611  2200   74.56079  238    8          -   74.56079      -  1868  394s
  2612  2201   74.56064  178   17          -   74.56079      -  1868  396s
  2615  2203   74.56079   81    1          -   74.56079      -  1865  400s
  2620  2206   74.56079   40    5          -   74.56079      -  1862  679s
  2622  2209   74.56079  113    5          -   74.56079      -  1878  682s
  2623  2210   74.56079   74    5          -   74.56079      -  1877  685s
  2624  2210   73.98532  120    6          -   73.98532      -  1877  691s
  2636  2220   72.60867   89    5          -   72.60867      -  1877  698s
  2637  2220   70.15472   79    4          -   70.15472      -  1876  702s
  2649  2230   66.38304   68    5          -   66.38304      -  1871  706s
  2650  2230   49.48433   29    2          -   49.48433      -  1871  710s
  2658  2236   46.97889  106    3          -   46.97889      -  1865  853s
  2660  2238   46.97889   66    5          -   46.97889      -  1867  855s
H 2660  2126                      -9.5227624   46.97889   593%  1867  855s
  2665  2129   -8.97025  189    0   -9.52276   -8.97025  5.80%  1864 1118s
  2669  2133   -9.46876   28    0   -9.52276   -9.46876  0.57%  1866 1121s
  2672  2135   -9.47148  202    0   -9.52276   -9.47148  0.54%  1864 1393s
H 2672  2028                      -9.5221199   -9.47148  0.53%  1864 1394s
  2674  2031   -9.51163   85  187   -9.52212   -9.50807  0.15%  1868 1395s

Cutting planes:
  RLT: 2

Explored 2804 nodes (5075613 simplex iterations) in 1399.99 seconds (2201.47 work units)
Thread count was 12 (of 12 available processors)

Solution count 2: -9.52212 -9.52276 

Optimal solution found (tolerance 1.00e-04)
Best objective -9.522119914120e+00, best bound -9.521625348019e+00, gap 0.0052%
